p cnf 134 608
1 -69 0
1 -70 0
69 -69 0
70 -70 0
18 -73 0
18 -74 0
73 -73 0
74 -74 0
35 -77 0
35 -78 0
77 -77 0
78 -78 0
52 -81 0
52 -82 0
81 -81 0
82 -82 0
2 -69 0
2 -70 0
69 -69 0
70 -70 0
19 -73 0
19 -74 0
73 -73 0
74 -74 0
36 -77 0
36 -78 0
77 -77 0
78 -78 0
53 -81 0
53 -82 0
81 -81 0
82 -82 0
-3 -69 0
-3 -70 0
69 -69 0
70 -70 0
-20 -73 0
-20 -74 0
73 -73 0
74 -74 0
-37 -77 0
-37 -78 0
77 -77 0
78 -78 0
-54 -81 0
-54 -82 0
81 -81 0
82 -82 0
4 -69 0
4 -70 0
69 -69 0
70 -70 0
21 -73 0
21 -74 0
73 -73 0
74 -74 0
38 -77 0
38 -78 0
77 -77 0
78 -78 0
55 -81 0
55 -82 0
81 -81 0
82 -82 0
5 -69 0
5 -70 0
69 -69 0
70 -70 0
22 -73 0
22 -74 0
73 -73 0
74 -74 0
39 -77 0
39 -78 0
77 -77 0
78 -78 0
56 -81 0
56 -82 0
81 -81 0
82 -82 0
6 -69 0
6 -70 0
69 -69 0
70 -70 0
23 -73 0
23 -74 0
73 -73 0
74 -74 0
40 -77 0
40 -78 0
77 -77 0
78 -78 0
57 -81 0
57 -82 0
81 -81 0
82 -82 0
7 -69 0
7 -70 0
69 -69 0
70 -70 0
24 -73 0
24 -74 0
73 -73 0
74 -74 0
41 -77 0
41 -78 0
77 -77 0
78 -78 0
58 -81 0
58 -82 0
81 -81 0
82 -82 0
8 -69 0
8 -70 0
69 -69 0
70 -70 0
25 -73 0
25 -74 0
73 -73 0
74 -74 0
42 -77 0
42 -78 0
77 -77 0
78 -78 0
59 -81 0
59 -82 0
81 -81 0
82 -82 0
9 -85 -69 0
-9 85 -69 0
9 85 -70 0
-9 -85 -70 0
26 -85 -73 0
-26 85 -73 0
26 85 -74 0
-26 -85 -74 0
43 -85 -77 0
-43 85 -77 0
43 85 -78 0
-43 -85 -78 0
60 -85 -81 0
-60 85 -81 0
60 85 -82 0
-60 -85 -82 0
-10 -69 0
-10 -70 0
69 -69 0
70 -70 0
-27 -73 0
-27 -74 0
73 -73 0
74 -74 0
-44 -77 0
-44 -78 0
77 -77 0
78 -78 0
-61 -81 0
-61 -82 0
81 -81 0
82 -82 0
11 -86 -69 0
-11 86 -69 0
11 86 -70 0
-11 -86 -70 0
28 -86 -73 0
-28 86 -73 0
28 86 -74 0
-28 -86 -74 0
45 -86 -77 0
-45 86 -77 0
45 86 -78 0
-45 -86 -78 0
62 -86 -81 0
-62 86 -81 0
62 86 -82 0
-62 -86 -82 0
12 -87 -69 0
-12 87 -69 0
12 87 -70 0
-12 -87 -70 0
29 -87 -73 0
-29 87 -73 0
29 87 -74 0
-29 -87 -74 0
46 -87 -77 0
-46 87 -77 0
46 87 -78 0
-46 -87 -78 0
63 -87 -81 0
-63 87 -81 0
63 87 -82 0
-63 -87 -82 0
13 -69 0
13 -70 0
69 -69 0
70 -70 0
30 -73 0
30 -74 0
73 -73 0
74 -74 0
47 -77 0
47 -78 0
77 -77 0
78 -78 0
64 -81 0
64 -82 0
81 -81 0
82 -82 0
14 -88 -69 0
-14 88 -69 0
14 88 -70 0
-14 -88 -70 0
31 -88 -73 0
-31 88 -73 0
31 88 -74 0
-31 -88 -74 0
48 -88 -77 0
-48 88 -77 0
48 88 -78 0
-48 -88 -78 0
65 -88 -81 0
-65 88 -81 0
65 88 -82 0
-65 -88 -82 0
15 -89 -69 0
-15 89 -69 0
15 89 -70 0
-15 -89 -70 0
32 -89 -73 0
-32 89 -73 0
32 89 -74 0
-32 -89 -74 0
49 -89 -77 0
-49 89 -77 0
49 89 -78 0
-49 -89 -78 0
66 -89 -81 0
-66 89 -81 0
66 89 -82 0
-66 -89 -82 0
16 -90 -69 0
-16 90 -69 0
16 90 -70 0
-16 -90 -70 0
33 -90 -73 0
-33 90 -73 0
33 90 -74 0
-33 -90 -74 0
50 -90 -77 0
-50 90 -77 0
50 90 -78 0
-50 -90 -78 0
67 -90 -81 0
-67 90 -81 0
67 90 -82 0
-67 -90 -82 0
17 -69 0
17 -70 0
69 -69 0
70 -70 0
34 -73 0
34 -74 0
73 -73 0
74 -74 0
51 -77 0
51 -78 0
77 -77 0
78 -78 0
68 -81 0
68 -82 0
81 -81 0
82 -82 0
-119 69 0
119 -69 0
-120 70 0
119 -70 0
-119 -69 0
-120 -70 0
-123 69 119 0
123 -69 0
123 -119 0
-124 70 120 0
124 -70 0
124 -120 0
-123 -73 0
-124 -74 0
-127 73 123 0
127 -73 0
127 -123 0
-128 74 124 0
128 -74 0
128 -124 0
-127 -77 0
-128 -78 0
-131 77 127 0
131 -77 0
131 -127 0
-132 78 128 0
132 -78 0
132 -128 0
-131 -81 0
-132 -82 0
131 0
132 0
1 -71 0
1 -72 0
71 -71 0
72 -72 0
18 -75 0
18 -76 0
75 -75 0
76 -76 0
35 -79 0
35 -80 0
79 -79 0
80 -80 0
52 -83 0
52 -84 0
83 -83 0
84 -84 0
2 -71 0
2 -72 0
71 -71 0
72 -72 0
19 -75 0
19 -76 0
75 -75 0
76 -76 0
36 -79 0
36 -80 0
79 -79 0
80 -80 0
53 -83 0
53 -84 0
83 -83 0
84 -84 0
3 -71 0
3 -72 0
71 -71 0
72 -72 0
20 -75 0
20 -76 0
75 -75 0
76 -76 0
37 -79 0
37 -80 0
79 -79 0
80 -80 0
54 -83 0
54 -84 0
83 -83 0
84 -84 0
4 -71 0
4 -72 0
71 -71 0
72 -72 0
21 -75 0
21 -76 0
75 -75 0
76 -76 0
38 -79 0
38 -80 0
79 -79 0
80 -80 0
55 -83 0
55 -84 0
83 -83 0
84 -84 0
5 -91 -71 0
-5 91 -71 0
5 91 -72 0
-5 -91 -72 0
22 -91 -75 0
-22 91 -75 0
22 91 -76 0
-22 -91 -76 0
39 -91 -79 0
-39 91 -79 0
39 91 -80 0
-39 -91 -80 0
56 -91 -83 0
-56 91 -83 0
56 91 -84 0
-56 -91 -84 0
6 -71 0
6 -72 0
71 -71 0
72 -72 0
23 -75 0
23 -76 0
75 -75 0
76 -76 0
40 -79 0
40 -80 0
79 -79 0
80 -80 0
57 -83 0
57 -84 0
83 -83 0
84 -84 0
7 -92 -71 0
-7 92 -71 0
7 92 -72 0
-7 -92 -72 0
24 -92 -75 0
-24 92 -75 0
24 92 -76 0
-24 -92 -76 0
41 -92 -79 0
-41 92 -79 0
41 92 -80 0
-41 -92 -80 0
58 -92 -83 0
-58 92 -83 0
58 92 -84 0
-58 -92 -84 0
8 -93 -71 0
-8 93 -71 0
8 93 -72 0
-8 -93 -72 0
25 -93 -75 0
-25 93 -75 0
25 93 -76 0
-25 -93 -76 0
42 -93 -79 0
-42 93 -79 0
42 93 -80 0
-42 -93 -80 0
59 -93 -83 0
-59 93 -83 0
59 93 -84 0
-59 -93 -84 0
9 -94 -71 0
-9 94 -71 0
9 94 -72 0
-9 -94 -72 0
26 -94 -75 0
-26 94 -75 0
26 94 -76 0
-26 -94 -76 0
43 -94 -79 0
-43 94 -79 0
43 94 -80 0
-43 -94 -80 0
60 -94 -83 0
-60 94 -83 0
60 94 -84 0
-60 -94 -84 0
10 -95 -71 0
-10 95 -71 0
10 95 -72 0
-10 -95 -72 0
27 -95 -75 0
-27 95 -75 0
27 95 -76 0
-27 -95 -76 0
44 -95 -79 0
-44 95 -79 0
44 95 -80 0
-44 -95 -80 0
61 -95 -83 0
-61 95 -83 0
61 95 -84 0
-61 -95 -84 0
-11 -71 0
-11 -72 0
71 -71 0
72 -72 0
-28 -75 0
-28 -76 0
75 -75 0
76 -76 0
-45 -79 0
-45 -80 0
79 -79 0
80 -80 0
-62 -83 0
-62 -84 0
83 -83 0
84 -84 0
12 -96 -71 0
-12 96 -71 0
12 96 -72 0
-12 -96 -72 0
29 -96 -75 0
-29 96 -75 0
29 96 -76 0
-29 -96 -76 0
46 -96 -79 0
-46 96 -79 0
46 96 -80 0
-46 -96 -80 0
63 -96 -83 0
-63 96 -83 0
63 96 -84 0
-63 -96 -84 0
13 -71 0
13 -72 0
71 -71 0
72 -72 0
30 -75 0
30 -76 0
75 -75 0
76 -76 0
47 -79 0
47 -80 0
79 -79 0
80 -80 0
64 -83 0
64 -84 0
83 -83 0
84 -84 0
14 -97 -71 0
-14 97 -71 0
14 97 -72 0
-14 -97 -72 0
31 -97 -75 0
-31 97 -75 0
31 97 -76 0
-31 -97 -76 0
48 -97 -79 0
-48 97 -79 0
48 97 -80 0
-48 -97 -80 0
65 -97 -83 0
-65 97 -83 0
65 97 -84 0
-65 -97 -84 0
15 -71 0
15 -72 0
71 -71 0
72 -72 0
32 -75 0
32 -76 0
75 -75 0
76 -76 0
49 -79 0
49 -80 0
79 -79 0
80 -80 0
66 -83 0
66 -84 0
83 -83 0
84 -84 0
16 -71 0
16 -72 0
71 -71 0
72 -72 0
33 -75 0
33 -76 0
75 -75 0
76 -76 0
50 -79 0
50 -80 0
79 -79 0
80 -80 0
67 -83 0
67 -84 0
83 -83 0
84 -84 0
17 -71 0
17 -72 0
71 -71 0
72 -72 0
34 -75 0
34 -76 0
75 -75 0
76 -76 0
51 -79 0
51 -80 0
79 -79 0
80 -80 0
68 -83 0
68 -84 0
83 -83 0
84 -84 0
-121 71 0
121 -71 0
-122 72 0
121 -72 0
-121 -71 0
-122 -72 0
-125 71 121 0
125 -71 0
125 -121 0
-126 72 122 0
126 -72 0
126 -122 0
-125 -75 0
-126 -76 0
-129 75 125 0
129 -75 0
129 -125 0
-130 76 126 0
130 -76 0
130 -126 0
-129 -79 0
-130 -80 0
-133 79 129 0
133 -79 0
133 -129 0
-134 80 130 0
134 -80 0
134 -130 0
-133 -83 0
-134 -84 0
133 0
134 0
